Si  O Si  O  H                          
   1.00000000000000     
     4.9123456636189919    0.0000000000000000    0.0000000000000000
     0.0000000000000000    4.9123456636189919    0.0000000000000000
     0.0000000000000000    0.0000000000000000   31.1212373974020480
   Si   O    Si   O    H 
     2     4     4     8     2
Selective dynamics
Direct
  0.6031600221179545  0.8616721216648742  0.0741568000378265   F   F   F
  0.6031600221179545  0.3616721216648742  0.0151414943334984   F   F   F
  0.4927464646370581  0.6116721216648742  0.0446491471856589   F   F   F
  0.7135735795988438  0.1116721216648742  0.0446491471856589   F   F   F
  0.3531600221179616  0.9720856791457706  0.1036644528899870   F   F   F
  0.8531600221179616  0.7512585641839777  0.1036644528899870   F   F   F
  0.6025897168826466  0.8617009451339988  0.3111464235689921   T   T   T
  0.5999286981393077  0.3609184871021884  0.2521313505452322   T   T   T
  0.0997566609122425  0.3611562976055978  0.1928324424534204   T   T   T
  0.1033378639321605  0.8607889643697085  0.1334376344411461   T   T   T
  0.8470531597918484  0.4706802656682421  0.2218395648889445   T   T   T
  0.4902226234733611  0.6123258421817324  0.2816402118163563   T   T   T
  0.7142453275581971  0.1079360183020294  0.2808624821649500   T   T   T
  0.3473844784794683  0.2522453989343538  0.2229182526564581   T   T   T
  0.3703619012473132  0.0073046620646535  0.3419283681265950   T   T   T
  0.9936542316044701  0.1106066561683974  0.1629701980816844   T   T   T
  0.2112820404529222  0.6103557674008367  0.1630661653758767   T   T   T
  0.8340792537353080  0.7205285285934228  0.3424637781533985   T   T   T
  0.3183044837226764  0.8917903575413966  0.3658192167482509   T   T   T
  0.9009038497296546  0.8454484873524888  0.3641544584491337   T   T   T
 
  0.00000000E+00  0.00000000E+00  0.00000000E+00
  0.00000000E+00  0.00000000E+00  0.00000000E+00
  0.00000000E+00  0.00000000E+00  0.00000000E+00
  0.00000000E+00  0.00000000E+00  0.00000000E+00
  0.00000000E+00  0.00000000E+00  0.00000000E+00
  0.00000000E+00  0.00000000E+00  0.00000000E+00
  0.00000000E+00  0.00000000E+00  0.00000000E+00
  0.00000000E+00  0.00000000E+00  0.00000000E+00
  0.00000000E+00  0.00000000E+00  0.00000000E+00
  0.00000000E+00  0.00000000E+00  0.00000000E+00
  0.00000000E+00  0.00000000E+00  0.00000000E+00
  0.00000000E+00  0.00000000E+00  0.00000000E+00
  0.00000000E+00  0.00000000E+00  0.00000000E+00
  0.00000000E+00  0.00000000E+00  0.00000000E+00
  0.00000000E+00  0.00000000E+00  0.00000000E+00
  0.00000000E+00  0.00000000E+00  0.00000000E+00
  0.00000000E+00  0.00000000E+00  0.00000000E+00
  0.00000000E+00  0.00000000E+00  0.00000000E+00
  0.00000000E+00  0.00000000E+00  0.00000000E+00
  0.00000000E+00  0.00000000E+00  0.00000000E+00
