 C  H  N  O Si                          
   1.00000000000000     
    14.7370369908569749    0.0000000000000000    0.0000000000000000
     0.0000000000000000   22.0395520668543128    0.0000000000000000
     0.0000000000000000    0.0000000000000000   34.1946474305609840
   C    H    N    O    Si
     6    36     2   207   109
Selective dynamics
Direct
  0.3925178285167024  0.5476194173099396  0.5079436738700397   T   T   T
  0.4192987711676582  0.5382376289277685  0.5975044558606908   T   T   T
  0.6131684937284538  0.5125497692336930  0.5493417231835470   T   T   T
  0.5584030970634059  0.4197743084863304  0.5193274742372735   T   T   T
  0.3149853679717378  0.4072436581420626  0.5154743120999070   T   T   T
  0.3569433320399397  0.3924511931116473  0.5831615927856605   T   T   T
  0.1971048245815047  0.1089453767430529  0.4397270392149459   T   T   T
  0.3627379455059676  0.3180429763682996  0.4426290798789188   T   T   T
  0.1962698522673489  0.4397718724607297  0.4386372624373655   T   T   T
  0.3489982515099784  0.6134454240620891  0.4532468632909899   T   T   T
  0.1998042327090674  0.7735867002159866  0.4392980800831431   T   T   T
  0.3654851922696726  0.9763432947414864  0.4440353886034882   T   T   T
  0.5314045775343541  0.1076726568944617  0.4394353319516148   T   T   T
  0.7010535840269866  0.3049193728514992  0.4468768931846988   T   T   T
  0.5798114651850380  0.4182946625341053  0.4165255712208470   T   T   T
  0.7020173398965384  0.6465140727593860  0.4433908956592963   T   T   T
  0.5328979382240771  0.7652574337530590  0.4343337970885766   T   T   T
  0.7027861428792738  0.9797914629965202  0.4434478791899062   T   T   T
  0.8644035597865808  0.1089335313529682  0.4399044198640873   T   T   T
  0.0322805206069786  0.3132417847259763  0.4433741158600057   T   T   T
  0.8613632281592204  0.4439773081431377  0.4408275527234162   T   T   T
  0.0313821360744442  0.6503408396339192  0.4414749824849159   T   T   T
  0.8614699378398001  0.7779098852289000  0.4410247892155852   T   T   T
  0.0320731430915974  0.9793888886909936  0.4430541820155030   T   T   T
  0.3499188747360990  0.5357647888606940  0.6093052001012265   T   T   T
  0.4658968625565427  0.5189562151948778  0.6193594971899886   T   T   T
  0.4432651031898467  0.5842395442474442  0.5057150715653307   T   T   T
  0.3915045524198048  0.5233901898616894  0.4798037533280026   T   T   T
  0.3253269615701488  0.5680385614651841  0.5132201297521590   T   T   T
  0.4363408064910813  0.5865657791401987  0.5940105365461394   T   T   T
  0.6305599903204869  0.5359973219028403  0.5215775037629445   T   T   T
  0.5970391535365456  0.5472841878571194  0.5714078517713826   T   T   T
  0.6746364957213720  0.4881940383440529  0.5592240513064842   T   T   T
  0.6191030448847780  0.3954381355117453  0.5301523096061951   T   T   T
  0.5013613339859836  0.3875766214518898  0.5191796405580815   T   T   T
  0.5717469721761322  0.4342307030588902  0.4888979762865632   T   T   T
  0.3542326567361505  0.3669040055207954  0.5054583582026567   T   T   T
  0.2450671937840248  0.3912168745742585  0.5213312571849875   T   T   T
  0.3125853880620663  0.4399705435999136  0.4912777459272088   T   T   T
  0.3832554243679808  0.4152216837979187  0.6094367030116882   T   T   T
  0.2882805708543397  0.3751388797942030  0.5899282430293986   T   T   T
  0.4009445438234844  0.3526477256509875  0.5771516575354622   T   T   T
  0.3536486355239745  0.4343336667881522  0.5502904132691760   T   T   T
  0.5378618568728000  0.4705874049707368  0.5450372049545366   T   T   T
  0.2335180829783070  0.1308506764201738  0.1369548904823077   F   F   F
  0.2800468971513439  0.2141840097535024  0.0851784836690470   F   F   F
  0.1133802304846796  0.2141840097535024  0.1169021364072336   F   F   F
  0.1599090446577094  0.1308506764201738  0.0651257295939729   F   F   F
  0.0668514163116427  0.2975173430868381  0.0651257295939729   F   F   F
  0.1130942231953243  0.0477024058323306  0.1566713474905797   T   T   T
  0.2800468971513439  0.0475173430868381  0.0450729755189059   F   F   F
  0.3265757113243808  0.2975173430868381  0.1369548904823077   F   F   F
  0.2330878083706955  0.1308198887006524  0.2804366723014535   T   T   T
  0.2798078197573978  0.2142893122907513  0.2288200333135559   T   T   T
  0.1131559900883209  0.2142745840117153  0.2604738743923945   T   T   T
  0.1593541787611662  0.1311328742673326  0.2085751130449597   T   T   T
  0.0667602726849112  0.2977759368711180  0.2088226869301453   T   T   T
  0.1126892376857081  0.0480006988690274  0.3007325001622664   T   T   T
  0.2797548607854117  0.0475456726005119  0.1887737225089263   T   T   T
  0.3261581727991949  0.2969584443525985  0.2811052558731841   T   T   T
  0.2386417590652915  0.1340011642610254  0.4248499710352694   T   T   T
  0.2787666425385363  0.2160673501306991  0.3723012224978417   T   T   T
  0.1118514116871211  0.2143170185562417  0.4040448790047612   T   T   T
  0.1601449314678605  0.1312170212018184  0.3525851902899799   T   T   T
  0.0666701246320831  0.2984387136840916  0.3528616852950176   T   T   T
  0.2794523713880414  0.0476647664816693  0.3322945775755675   T   T   T
  0.3206948973841490  0.2973243396965794  0.4253780882310210   T   T   T
  0.2335180829783070  0.4641840097535024  0.1369548904823077   F   F   F
  0.2800468971513439  0.5475173430868381  0.0851784836690470   F   F   F
  0.1133802304846796  0.5475173430868381  0.1169021364072336   F   F   F
  0.1599090446577094  0.4641840097535024  0.0651257295939729   F   F   F
  0.0668514163116427  0.6308506764201738  0.0651257295939729   F   F   F
  0.1130973926708671  0.3810729432888967  0.1567308304208491   T   T   T
  0.2800468971513439  0.3808506764201738  0.0450729755189059   F   F   F
  0.3265757113243808  0.6308506764201738  0.1369548904823077   F   F   F
  0.2333522908923689  0.4647903018666916  0.2809098701983074   T   T   T
  0.2797632133850284  0.5480985968369287  0.2291337595735010   T   T   T
  0.1129312375642297  0.5476220576761976  0.2604928030934366   T   T   T
  0.1602420178385773  0.4642692349593688  0.2088963011458996   T   T   T
  0.0671501780841046  0.6309499289605034  0.2086214388383801   T   T   T
  0.1132069977994451  0.3816165185430596  0.3008761009039737   T   T   T
  0.2797579165107716  0.3808441132047853  0.1887581493247601   T   T   T
  0.3273709611361559  0.6297502114324158  0.2821303905538707   T   T   T
  0.2378176334050046  0.4669716845944476  0.4253999394131167   T   T   T
  0.2809448161790850  0.5487704064204224  0.3731188815938113   T   T   T
  0.1132909885008454  0.5484374254017640  0.4040366153333885   T   T   T
  0.1606828447044133  0.4645651829448070  0.3530033003128677   T   T   T
  0.0659109579814397  0.6310919272728280  0.3523458642587581   T   T   T
  0.2801786328245016  0.3811890556809786  0.3323647314292258   T   T   T
  0.3333607207558969  0.6305543752511754  0.4278319166950085   T   T   T
  0.2335180829783070  0.7975173430868310  0.1369548904823077   F   F   F
  0.2800468971513439  0.8808506764201667  0.0851784836690470   F   F   F
  0.1133802304846796  0.8808506764201667  0.1169021364072336   F   F   F
  0.1599090446577094  0.7975173430868310  0.0651257295939729   F   F   F
  0.0668514163116427  0.9641840097534953  0.0651257295939729   F   F   F
  0.1131002287286544  0.7144419549739235  0.1566972059378892   T   T   T
  0.2800468971513439  0.7141840097535024  0.0450729755189059   F   F   F
  0.3265757113243808  0.9641840097534953  0.1369548904823077   F   F   F
  0.2330920751654056  0.7980798684535091  0.2811650449497753   T   T   T
  0.2797614028988282  0.8809831219574705  0.2289739543111009   T   T   T
  0.1129385655665881  0.8809556683100956  0.2604943348087251   T   T   T
  0.1598536643603102  0.7972952359371712  0.2090820643775647   T   T   T
  0.0670932639140763  0.9644026292731780  0.2087447340162802   T   T   T
  0.1132374131177831  0.7145065598802942  0.3006807836711410   T   T   T
  0.2797302808483822  0.7142590841898524  0.1887637471563823   T   T   T
  0.3268273103437122  0.9648742421941211  0.2803764996709880   T   T   T
  0.2390894856531587  0.8008871535796042  0.4249793103455262   T   T   T
  0.2788402105694720  0.8814595532833437  0.3714945799965080   T   T   T
  0.1127716814038417  0.8815795153035053  0.4041907818196623   T   T   T
  0.1589165000036320  0.7970795955256572  0.3531405770536678   T   T   T
  0.0659214176293890  0.9644169002073181  0.3523572633343910   T   T   T
  0.2795182132450569  0.7142942110706559  0.3329264031276036   T   T   T
  0.3218814161355669  0.9630533322900537  0.4246367626900362   T   T   T
  0.5668514163116427  0.1308506764201738  0.1369548904823077   F   F   F
  0.6133802304846796  0.2141840097535024  0.0851784836690470   F   F   F
  0.4467135638180153  0.2141840097535024  0.1169021364072336   F   F   F
  0.4932423779910451  0.1308506764201738  0.0651257295939729   F   F   F
  0.4001847496449784  0.2975173430868381  0.0651257295939729   F   F   F
  0.4464228029881168  0.0477533741727946  0.1566953237643887   T   T   T
  0.6133802304846796  0.0475173430868381  0.0450729755189059   F   F   F
  0.6599090446577165  0.2975173430868381  0.1369548904823077   F   F   F
  0.5666095219792961  0.1315096764779042  0.2811738052729825   T   T   T
  0.6130964236423607  0.2142259069033279  0.2288616892082409   T   T   T
  0.4464788935140014  0.2142776645600649  0.2604780991587525   T   T   T
  0.4932020112109447  0.1305601038482557  0.2090675598517997   T   T   T
  0.3997696941915135  0.2979769362695376  0.2090946278353378   T   T   T
  0.4464281097626330  0.0483879941254408  0.3012270190987004   T   T   T
  0.6131097947812710  0.0474765598549539  0.1887561528608629   T   T   T
  0.6596512010423574  0.2979335399529666  0.2803323351597011   T   T   T
  0.5721947385323788  0.1343644107387454  0.4253705956986177   T   T   T
  0.6116803661594903  0.2170564377781193  0.3730982639118595   T   T   T
  0.4454057199034463  0.2150093075627434  0.4048825064765948   T   T   T
  0.4937629235110059  0.1316424923503597  0.3532528538844001   T   T   T
  0.4003351309326022  0.2985910215708528  0.3532495351861079   T   T   T
  0.6130334326536301  0.0477632025410534  0.3328812558062954   T   T   T
  0.6606128534237964  0.3016609373961843  0.4246136687074475   T   T   T
  0.5668514163116427  0.4641840097535024  0.1369548904823077   F   F   F
  0.6133802304846796  0.5475173430868381  0.0851784836690470   F   F   F
  0.4467135638180153  0.5475173430868381  0.1169021364072336   F   F   F
  0.4932423779910451  0.4641840097535024  0.0651257295939729   F   F   F
  0.4001847496449784  0.6308506764201738  0.0651257295939729   F   F   F
  0.4464339740881574  0.3808065098329008  0.1566927094730072   T   T   T
  0.6133802304846796  0.3808506764201738  0.0450729755189059   F   F   F
  0.6599090446577165  0.6308506764201738  0.1369548904823077   F   F   F
  0.5670739020765773  0.4634242352406396  0.2796356335790610   T   T   T
  0.6131446975335152  0.5477895966261392  0.2287364151896714   T   T   T
  0.4467004615606940  0.5474835601947312  0.2605168060534223   T   T   T
  0.4923920853099326  0.4644551894069113  0.2083801979342627   T   T   T
  0.3992751730833591  0.6316644933814599  0.2094365274313447   T   T   T
  0.4465777857016883  0.3800622912377585  0.3000818792664018   T   T   T
  0.6130754057918216  0.3808773489268058  0.1887773942160032   T   T   T
  0.6599674187115946  0.6306193336824520  0.2810444167820206   T   T   T
  0.5677673406591757  0.4604692455144931  0.4230265062678321   T   T   T
  0.6103239921094984  0.5497953237146186  0.3724175564804932   T   T   T
  0.4467672063513334  0.5445165225711897  0.4050196932363425   T   T   T
  0.4931149468020225  0.4643392955556110  0.3511591007418605   T   T   T
  0.3995882353689071  0.6323565094837744  0.3548299253704787   T   T   T
  0.6128902166130077  0.3809293888945987  0.3323043907834705   T   T   T
  0.6569030528042730  0.6301443020654498  0.4256811054216134   T   T   T
  0.5668514163116427  0.7975173430868310  0.1369548904823077   F   F   F
  0.6133802304846796  0.8808506764201667  0.0851784836690470   F   F   F
  0.4467135638180153  0.8808506764201667  0.1169021364072336   F   F   F
  0.4932423779910451  0.7975173430868310  0.0651257295939729   F   F   F
  0.4001847496449784  0.9641840097534953  0.0651257295939729   F   F   F
  0.4464537030867016  0.7141033161469559  0.1567447968040794   T   T   T
  0.6133802304846796  0.7141840097535024  0.0450729755189059   F   F   F
  0.6599090446577165  0.9641840097534953  0.1369548904823077   F   F   F
  0.5657340199416421  0.7969887115169380  0.2803200674609563   T   T   T
  0.6130966873934668  0.8809594669099747  0.2289456509507665   T   T   T
  0.4464103554044389  0.8809586554723168  0.2604726110020233   T   T   T
  0.4925609468970637  0.7978175891390901  0.2085320309711836   T   T   T
  0.4003035064598833  0.9643819371219782  0.2087098200871559   T   T   T
  0.4464245921821295  0.7135106809935002  0.3013750723869354   T   T   T
  0.6130851212672197  0.7143054731908551  0.1887765699466018   T   T   T
  0.6597377443624310  0.9647213493781588  0.2805767334055539   T   T   T
  0.5702115725289166  0.7982816366757960  0.4246967129520591   T   T   T
  0.6121207694264057  0.8820461866357594  0.3730902784014113   T   T   T
  0.4455942957716800  0.8808395459707890  0.4041300240359060   T   T   T
  0.4931999353743795  0.7978401057481338  0.3524247221698946   T   T   T
  0.3994092972206693  0.9642944082745633  0.3524162221457002   T   T   T
  0.6133314568336593  0.7145670669752165  0.3324752195023632   T   T   T
  0.6578531775135453  0.9643619197107467  0.4253109985196488   T   T   T
  0.9001847496449784  0.1308506764201738  0.1369548904823077   F   F   F
  0.9467135638180153  0.2141840097535024  0.0851784836690470   F   F   F
  0.7800468971513439  0.2141840097535024  0.1169021364072336   F   F   F
  0.8265757113243808  0.1308506764201738  0.0651257295939729   F   F   F
  0.7335180829783141  0.2975173430868381  0.0651257295939729   F   F   F
  0.7797760511134118  0.0477350112377416  0.1567138614383178   T   T   T
  0.9467135638180153  0.0475173430868381  0.0450729755189059   F   F   F
  0.9932423779910522  0.2975173430868381  0.1369548904823077   F   F   F
  0.8994793751008023  0.1315505796070692  0.2811597869133169   T   T   T
  0.9464432557909037  0.2143218582844346  0.2289840003102877   T   T   T
  0.7796215205836419  0.2143275804907982  0.2604885559963384   T   T   T
  0.8265325830014665  0.1306212316598176  0.2090400594730548   T   T   T
  0.7336324545216768  0.2977171120112456  0.2086967410539481   T   T   T
  0.7793216888673676  0.0482067133620268  0.3009164428161141   T   T   T
  0.9464676707826571  0.0474711598570683  0.1887726589016876   T   T   T
  0.9936439780860147  0.2977189655806964  0.2807555244069255   T   T   T
  0.9056407333765210  0.1342041470285585  0.4250233950791327   T   T   T
  0.9447968241462313  0.2160308767987426  0.3719936151726665   T   T   T
  0.7789567042378217  0.2149249449160868  0.4048112168079567   T   T   T
  0.8258859138305410  0.1310604009582100  0.3532143113896257   T   T   T
  0.7329634326673191  0.2977717072293500  0.3522797109534758   T   T   T
  0.9458874665344144  0.0477287352503508  0.3325182310766329   T   T   T
  0.9884449227296227  0.2969138953703755  0.4250752898461174   T   T   T
  0.9001847496449784  0.4641840097535024  0.1369548904823077   F   F   F
  0.9467135638180153  0.5475173430868381  0.0851784836690470   F   F   F
  0.7800468971513439  0.5475173430868381  0.1169021364072336   F   F   F
  0.8265757113243808  0.4641840097535024  0.0651257295939729   F   F   F
  0.7335180829783141  0.6308506764201738  0.0651257295939729   F   F   F
  0.7797558369378496  0.3810545596496961  0.1566796687433563   T   T   T
  0.9467135638180153  0.3808506764201738  0.0450729755189059   F   F   F
  0.9932423779910522  0.6308506764201738  0.1369548904823077   F   F   F
  0.8998170957039566  0.4642846165844076  0.2803637795392964   T   T   T
  0.9464472841970072  0.5477545270740447  0.2287332969839749   T   T   T
  0.7797397994901500  0.5476204977287628  0.2604676280364740   T   T   T
  0.8260113054988590  0.4644744520607939  0.2085808015295511   T   T   T
  0.7331951573311288  0.6313535658809259  0.2090082418258182   T   T   T
  0.7796881037885161  0.3812503902411403  0.3006101569185708   T   T   T
  0.9464110522642393  0.3808891123537181  0.1887788279498506   T   T   T
  0.9930834779888459  0.6313162082248766  0.2803585475234347   T   T   T
  0.9042712896481349  0.4659341168229058  0.4246871128717469   T   T   T
  0.9456238998355900  0.5481327742162347  0.3722262762549728   T   T   T
  0.7781288201601676  0.5469951596169771  0.4039745742045619   T   T   T
  0.8264221582851019  0.4643597487666176  0.3524172812737436   T   T   T
  0.7332323635539810  0.6316035764295032  0.3530222800474742   T   T   T
  0.9464266709459592  0.3812294690125864  0.3322229960766841   T   T   T
  0.9880913157398005  0.6299034369091976  0.4247121688918668   T   T   T
  0.9001847496449784  0.7975173430868310  0.1369548904823077   F   F   F
  0.9467135638180153  0.8808506764201667  0.0851784836690470   F   F   F
  0.7800468971513439  0.8808506764201667  0.1169021364072336   F   F   F
  0.8265757113243808  0.7975173430868310  0.0651257295939729   F   F   F
  0.7335180829783141  0.9641840097534953  0.0651257295939729   F   F   F
  0.7797729164761525  0.7142906551945315  0.1567118879832244   T   T   T
  0.9467135638180153  0.7141840097535024  0.0450729755189059   F   F   F
  0.9932423779910522  0.9641840097534953  0.1369548904823077   F   F   F
  0.8997970129067970  0.7978633826447602  0.2805595960868544   T   T   T
  0.9464361102623243  0.8810867277701451  0.2287607911566510   T   T   T
  0.7796561445325927  0.8809908031484690  0.2604790930815110   T   T   T
  0.8263799329023712  0.7976333361917198  0.2086924687333701   T   T   T
  0.7335426553483162  0.9643888041591244  0.2087856949557291   T   T   T
  0.7797600360426343  0.7144620824920945  0.3006691943483626   T   T   T
  0.9464295634843725  0.7141370466829330  0.1887685055632566   T   T   T
  0.9929630409920978  0.9646470789074557  0.2804202288566037   T   T   T
  0.9047615454146681  0.7992306878526673  0.4247192656778941   T   T   T
  0.9457942759551414  0.8813977595702396  0.3718680459543582   T   T   T
  0.7797576605314879  0.8810892700991644  0.4044795164545845   T   T   T
  0.8262168136695246  0.7976373567245781  0.3526448615302000   T   T   T
  0.7328919092506969  0.9642380952097075  0.3525498713419564   T   T   T
  0.9464329371636200  0.7146065529229120  0.3322110960554839   T   T   T
  0.9881388397782894  0.9633163928049278  0.4246895748852925   T   T   T
  0.0300468971513439  0.2558506764201738  0.1010403100381438   F   F   F
  0.1967135638180082  0.1725173430868381  0.1010403100381438   F   F   F
  0.1967135638180082  0.0891840097535024  0.0292111491498090   F   F   F
  0.0300468971513439  0.0058506764201738  0.0292111491498090   F   F   F
  0.0298881548299873  0.2560459852631704  0.2447590332569968   T   T   T
  0.1963908405821707  0.1725890266145917  0.2446026987960115   T   T   T
  0.1964288472262163  0.0892135080122942  0.1728337723823277   T   T   T
  0.0299888006329858  0.0059700371746708  0.1728441850561897   T   T   T
  0.0286534660077633  0.2565601659574895  0.3886204496993306   T   T   T
  0.1967389183080235  0.1734707472886565  0.3884706110571979   T   T   T
  0.1963188849804256  0.0894669349633414  0.3165671721266403   T   T   T
  0.0293116672922667  0.0062241125705352  0.3165148065200153   T   T   T
  0.0300468971513439  0.5891840097535024  0.1010403100381438   F   F   F
  0.1967135638180082  0.5058506764201738  0.1010403100381438   F   F   F
  0.1967135638180082  0.4225173430868381  0.0292111491498090   F   F   F
  0.0300468971513439  0.3391840097535024  0.0292111491498090   F   F   F
  0.0298532379252850  0.5894370888052612  0.2445832158534700   T   T   T
  0.1965988674045436  0.5061373036004412  0.2448490208584960   T   T   T
  0.1965200325782277  0.4225917480636590  0.1728908205738297   T   T   T
  0.0299108999262049  0.3393417387463832  0.1728580594637805   T   T   T
  0.0288721874595281  0.5895464716651482  0.3884253847184387   T   T   T
  0.1977082929522023  0.5069474549046151  0.3887477460328154   T   T   T
  0.1967867789841354  0.4230529396972952  0.3168397283511002   T   T   T
  0.0300618157284788  0.3396439487981536  0.3166643860926044   T   T   T
  0.0300468971513439  0.9225173430868310  0.1010403100381438   F   F   F
  0.1967135638180082  0.8391840097534953  0.1010403100381438   F   F   F
  0.1967135638180082  0.7558506764201667  0.0292111491498090   F   F   F
  0.0300468971513439  0.6725173430868381  0.0292111491498090   F   F   F
  0.0298109050606629  0.9227552589055023  0.2446499542904927   T   T   T
  0.1965262613927378  0.8392598432668604  0.2449654079039536   T   T   T
  0.1964267345197345  0.7559717169647154  0.1729342011688252   T   T   T
  0.0299788289581757  0.6726892783775619  0.1728149531480363   T   T   T
  0.0287636108228818  0.9227828731496853  0.3883881586696818   T   T   T
  0.1966715527426688  0.8398258143311722  0.3885925202091197   T   T   T
  0.1963665004624379  0.7560555302627372  0.3169951470452854   T   T   T
  0.0296480379720385  0.6729058353288014  0.3164072056115064   T   T   T
  0.3633802304846796  0.2558506764201738  0.1010403100381438   F   F   F
  0.5300468971513439  0.1725173430868381  0.1010403100381438   F   F   F
  0.5300468971513439  0.0891840097535024  0.0292111491498090   F   F   F
  0.3633802304846796  0.0058506764201738  0.0292111491498090   F   F   F
  0.3629775457252373  0.2559247750314301  0.2448791007310870   T   T   T
  0.5299061906411939  0.1725147667613113  0.2449193157345226   T   T   T
  0.5298118343859114  0.0892231502003777  0.1729160338235121   T   T   T
  0.3632617493181475  0.0060158219681693  0.1728384169516355   T   T   T
  0.3618997772305100  0.2569966018697213  0.3891954662628041   T   T   T
  0.5299184839758894  0.1740290163136823  0.3891526247284949   T   T   T
  0.5299186313421673  0.0898363180393975  0.3171979814414268   T   T   T
  0.3630750391085748  0.0062021882994744  0.3165985810810478   T   T   T
  0.3633802304846796  0.5891840097535024  0.1010403100381438   F   F   F
  0.5300468971513439  0.5058506764201738  0.1010403100381438   F   F   F
  0.5300468971513439  0.4225173430868381  0.0292111491498090   F   F   F
  0.3633802304846796  0.3391840097535024  0.0292111491498090   F   F   F
  0.3630976075377820  0.5895311686229717  0.2453364675334330   T   T   T
  0.5297007140552323  0.5060011385750230  0.2442710319890166   T   T   T
  0.5296967683171908  0.4224435031496552  0.1727521347535332   T   T   T
  0.3631799520551618  0.3392291580468623  0.1729219335008736   T   T   T
  0.3650308065454434  0.5890776492210250  0.3904433997403399   T   T   T
  0.5303358473017586  0.5044507267499609  0.3878505365283826   T   T   T
  0.5297054111407097  0.4221678227242096  0.3155391765781781   T   T   T
  0.3631662490859605  0.3390721262884991  0.3167790225497586   T   T   T
  0.3633802304846796  0.9225173430868310  0.1010403100381438   F   F   F
  0.5300468971513439  0.8391840097534953  0.1010403100381438   F   F   F
  0.5300468971513439  0.7558506764201667  0.0292111491498090   F   F   F
  0.3633802304846796  0.6725173430868381  0.0292111491498090   F   F   F
  0.3632236046636459  0.9227590320769977  0.2446650448951277   T   T   T
  0.5295695621773240  0.8392085444402174  0.2446056955937173   T   T   T
  0.5296599937054685  0.7558645861559188  0.1728223587052730   T   T   T
  0.3631089262844627  0.6725734214477257  0.1729916847101286   T   T   T
  0.3620411155569038  0.9224012852256697  0.3883083739459089   T   T   T
  0.5297495820261771  0.8392161276998004  0.3887442061480068   T   T   T
  0.5296214162993078  0.7558503072594328  0.3166566096865989   T   T   T
  0.3632497410576573  0.6722576658348636  0.3179160677164352   T   T   T
  0.6967135638180153  0.2558506764201738  0.1010403100381438   F   F   F
  0.8633802304846796  0.1725173430868381  0.1010403100381438   F   F   F
  0.8633802304846796  0.0891840097535024  0.0292111491498090   F   F   F
  0.6967135638180153  0.0058506764201738  0.0292111491498090   F   F   F
  0.6964665478384140  0.2559855618482307  0.2445538708619228   T   T   T
  0.8631458849417341  0.1726261373210895  0.2448944228994043   T   T   T
  0.8631743734931694  0.0892204226328653  0.1729180640710322   T   T   T
  0.6966292573834384  0.0059776875648398  0.1728533398431428   T   T   T
  0.6964121754013060  0.2573902020270218  0.3888691080122050   T   T   T
  0.8632447506384074  0.1736583574740929  0.3887717866843716   T   T   T
  0.8626299652908485  0.0897061927925534  0.3170151662462124   T   T   T
  0.6961985799539753  0.0061515361399905  0.3167429773804808   T   T   T
  0.6967135638180153  0.5891840097535024  0.1010403100381438   F   F   F
  0.8633802304846796  0.5058506764201738  0.1010403100381438   F   F   F
  0.8633802304846796  0.4225173430868381  0.0292111491498090   F   F   F
  0.6967135638180153  0.3391840097535024  0.0292111491498090   F   F   F
  0.6963770933372887  0.5894387876740477  0.2448442561467113   T   T   T
  0.8630545850628847  0.5060890136732328  0.2445369284961175   T   T   T
  0.8630990040024994  0.4225761229324123  0.1728364800832161   T   T   T
  0.6965843315108685  0.3393721654052634  0.1728129048364164   T   T   T
  0.6950060010281385  0.5897579746649345  0.3887805076337480   T   T   T
  0.8630493356002932  0.5061976274567050  0.3884785139256021   T   T   T
  0.8632064259974130  0.4228789139585360  0.3164335839710476   T   T   T
  0.6965412262308692  0.3393776457050168  0.3162992329411821   T   T   T
  0.6967135638180153  0.9225173430868310  0.1010403100381438   F   F   F
  0.8633802304846796  0.8391840097534953  0.1010403100381438   F   F   F
  0.8633802304846796  0.7558506764201667  0.0292111491498090   F   F   F
  0.6967135638180153  0.6725173430868381  0.0292111491498090   F   F   F
  0.6963794336449419  0.9227983172171786  0.2447456162402863   T   T   T
  0.8630732529443627  0.8394275376622846  0.2446281475064153   T   T   T
  0.8631357197654654  0.7558500957033448  0.1728475549744859   T   T   T
  0.6965105644615446  0.6726847207500105  0.1728913383524024   T   T   T
  0.6960755074105427  0.9230151210962846  0.3889101188324495   T   T   T
  0.8634831010764751  0.8395698571662017  0.3885386640187788   T   T   T
  0.8630044776459781  0.7562755022252000  0.3165642639724682   T   T   T
  0.6966157087875039  0.6728059508006945  0.3168058590337603   T   T   T
  0.4262854911201116  0.4961709357772695  0.5497192606829300   T   T   T
 
  0.00000000E+00  0.00000000E+00  0.00000000E+00
  0.00000000E+00  0.00000000E+00  0.00000000E+00
  0.00000000E+00  0.00000000E+00  0.00000000E+00
  0.00000000E+00  0.00000000E+00  0.00000000E+00
  0.00000000E+00  0.00000000E+00  0.00000000E+00
  0.00000000E+00  0.00000000E+00  0.00000000E+00
  0.00000000E+00  0.00000000E+00  0.00000000E+00
  0.00000000E+00  0.00000000E+00  0.00000000E+00
  0.00000000E+00  0.00000000E+00  0.00000000E+00
  0.00000000E+00  0.00000000E+00  0.00000000E+00
  0.00000000E+00  0.00000000E+00  0.00000000E+00
  0.00000000E+00  0.00000000E+00  0.00000000E+00
  0.00000000E+00  0.00000000E+00  0.00000000E+00
  0.00000000E+00  0.00000000E+00  0.00000000E+00
  0.00000000E+00  0.00000000E+00  0.00000000E+00
  0.00000000E+00  0.00000000E+00  0.00000000E+00
  0.00000000E+00  0.00000000E+00  0.00000000E+00
  0.00000000E+00  0.00000000E+00  0.00000000E+00
  0.00000000E+00  0.00000000E+00  0.00000000E+00
  0.00000000E+00  0.00000000E+00  0.00000000E+00
  0.00000000E+00  0.00000000E+00  0.00000000E+00
  0.00000000E+00  0.00000000E+00  0.00000000E+00
  0.00000000E+00  0.00000000E+00  0.00000000E+00
  0.00000000E+00  0.00000000E+00  0.00000000E+00
  0.00000000E+00  0.00000000E+00  0.00000000E+00
  0.00000000E+00  0.00000000E+00  0.00000000E+00
  0.00000000E+00  0.00000000E+00  0.00000000E+00
  0.00000000E+00  0.00000000E+00  0.00000000E+00
  0.00000000E+00  0.00000000E+00  0.00000000E+00
  0.00000000E+00  0.00000000E+00  0.00000000E+00
  0.00000000E+00  0.00000000E+00  0.00000000E+00
  0.00000000E+00  0.00000000E+00  0.00000000E+00
  0.00000000E+00  0.00000000E+00  0.00000000E+00
  0.00000000E+00  0.00000000E+00  0.00000000E+00
  0.00000000E+00  0.00000000E+00  0.00000000E+00
  0.00000000E+00  0.00000000E+00  0.00000000E+00
  0.00000000E+00  0.00000000E+00  0.00000000E+00
  0.00000000E+00  0.00000000E+00  0.00000000E+00
  0.00000000E+00  0.00000000E+00  0.00000000E+00
  0.00000000E+00  0.00000000E+00  0.00000000E+00
  0.00000000E+00  0.00000000E+00  0.00000000E+00
  0.00000000E+00  0.00000000E+00  0.00000000E+00
  0.00000000E+00  0.00000000E+00  0.00000000E+00
  0.00000000E+00  0.00000000E+00  0.00000000E+00
  0.00000000E+00  0.00000000E+00  0.00000000E+00
  0.00000000E+00  0.00000000E+00  0.00000000E+00
  0.00000000E+00  0.00000000E+00  0.00000000E+00
  0.00000000E+00  0.00000000E+00  0.00000000E+00
  0.00000000E+00  0.00000000E+00  0.00000000E+00
  0.00000000E+00  0.00000000E+00  0.00000000E+00
  0.00000000E+00  0.00000000E+00  0.00000000E+00
  0.00000000E+00  0.00000000E+00  0.00000000E+00
  0.00000000E+00  0.00000000E+00  0.00000000E+00
  0.00000000E+00  0.00000000E+00  0.00000000E+00
  0.00000000E+00  0.00000000E+00  0.00000000E+00
  0.00000000E+00  0.00000000E+00  0.00000000E+00
  0.00000000E+00  0.00000000E+00  0.00000000E+00
  0.00000000E+00  0.00000000E+00  0.00000000E+00
  0.00000000E+00  0.00000000E+00  0.00000000E+00
  0.00000000E+00  0.00000000E+00  0.00000000E+00
  0.00000000E+00  0.00000000E+00  0.00000000E+00
  0.00000000E+00  0.00000000E+00  0.00000000E+00
  0.00000000E+00  0.00000000E+00  0.00000000E+00
  0.00000000E+00  0.00000000E+00  0.00000000E+00
  0.00000000E+00  0.00000000E+00  0.00000000E+00
  0.00000000E+00  0.00000000E+00  0.00000000E+00
  0.00000000E+00  0.00000000E+00  0.00000000E+00
  0.00000000E+00  0.00000000E+00  0.00000000E+00